(set-option :print-success true)
(set-option :produce-assignments true)
(set-option :produce-proofs true)
(set-logic QF_AUFLIA)
(declare-fun op_2 () (Array Int Int))
(declare-fun op_1 () (Array Int Int))
(declare-fun op_3 () (Array Int Int))
(declare-fun op_0 () (Array Int Int))
(assert (not (=> (= (store op_0 0 4) op_1) (=> (= op_2 (store (store op_0 0 4) 1 4)) (=> (= op_3 (store op_2 1 (select op_0 1))) (= op_3 op_1))))))
(check-sat)
(get-proof)
